Tried aggregator 1 time.
MIP Presolve eliminated 993 rows and 614 columns.
MIP Presolve modified 28747 coefficients.
Reduced MIP has 310 rows, 586 columns, and 9654 nonzeros.
Reduced MIP has 586 binaries, 0 generals, 0 SOSs, and 0 indicators.
Presolve time = 0,10 sec. (95,75 ticks)
Found incumbent of value 72,000000 after 0,12 sec. (108,19 ticks)
Probing time = 0,00 sec. (3,18 ticks)
Tried aggregator 1 time.
MIP Presolve eliminated 15 rows and 2 columns.
MIP Presolve modified 275 coefficients.
Reduced MIP has 295 rows, 584 columns, and 9389 nonzeros.
Reduced MIP has 584 binaries, 0 generals, 0 SOSs, and 0 indicators.
Presolve time = 0,01 sec. (9,86 ticks)
Probing time = 0,00 sec. (3,17 ticks)
Clique table members: 736.
MIP emphasis: balance optimality and feasibility.
MIP search method: dynamic search.
Parallel mode: deterministic, using up to 8 threads.
Root relaxation solution time = 0,00 sec. (1,12 ticks)

        Nodes                                         Cuts/
   Node  Left     Objective  IInf  Best Integer    Best Bound    ItCnt     Gap

*     0+    0                           72,0000        0,0000           100,00%
*     0+    0                           50,0000        0,0000           100,00%
*     0+    0                           43,0000        0,0000           100,00%
*     0     0      integral     0       40,0000       40,0000       11    0,00%
Elapsed time = 0,15 sec. (129,31 ticks, tree = 0,00 MB, solutions = 4)

Root node processing (before b&c):
  Real time             =    0,15 sec. (129,41 ticks)
Parallel b&c, 8 threads:
  Real time             =    0,00 sec. (0,00 ticks)
  Sync time (average)   =    0,00 sec.
  Wait time (average)   =    0,00 sec.
                          ------------
Total (root+branch&cut) =    0,15 sec. (129,41 ticks)

